% Auto-generated by scripts/generate_dzn.py
% problem_type   = polyominoes
% instance       = polyominoes_70
% source_json    = instances_json/0_low_blowup/polyominoes_70.json
% blowup         = 0.5777777777777777
% representation = DFA

mode = 0;

size = 4;
tiles = 2;
n_expressions = 2;
Q = 57;
S = 3;
q0 = [1, 1];
F = [{50}, {44}];
d_dfa = array3d(1..2, 1..57, 1..3, [
  % k = 1
    2, 1, 1,
    3, 4, 4,
    5, 6, 6,
    57, 7, 7,
    8, 9, 9,
    57, 10, 10,
    57, 11, 11,
    57, 12, 12,
    57, 13, 13,
    14, 15, 15,
    16, 17, 17,
    18, 19, 19,
    20, 57, 57,
    21, 57, 57,
    22, 57, 57,
    23, 57, 57,
    24, 57, 57,
    25, 57, 57,
    26, 57, 57,
    27, 57, 57,
    28, 57, 57,
    29, 57, 57,
    57, 30, 30,
    31, 57, 57,
    32, 57, 57,
    33, 57, 57,
    34, 57, 57,
    57, 35, 35,
    36, 57, 57,
    57, 37, 37,
    57, 23, 23,
    57, 38, 38,
    39, 57, 57,
    57, 40, 40,
    41, 57, 57,
    57, 28, 28,
    42, 57, 57,
    57, 43, 43,
    57, 32, 32,
    57, 44, 44,
    43, 57, 57,
    45, 57, 57,
    46, 57, 57,
    47, 48, 48,
    49, 57, 57,
    50, 57, 57,
    51, 57, 57,
    52, 57, 57,
    57, 53, 53,
    57, 50, 50,
    57, 54, 54,
    55, 57, 57,
    57, 41, 41,
    57, 56, 56,
    57, 51, 51,
    57, 46, 46,
    57, 57, 57,

  % k = 2
    1, 2, 1,
    3, 4, 3,
    5, 47, 5,
    47, 6, 47,
    7, 47, 7,
    8, 9, 8,
    10, 11, 10,
    12, 47, 12,
    13, 47, 13,
    47, 14, 47,
    47, 15, 47,
    16, 17, 16,
    18, 19, 18,
    20, 21, 20,
    22, 47, 22,
    47, 23, 47,
    47, 24, 47,
    25, 47, 25,
    47, 26, 47,
    27, 47, 27,
    28, 47, 28,
    47, 29, 47,
    47, 30, 47,
    31, 47, 31,
    47, 32, 47,
    33, 47, 33,
    34, 47, 34,
    15, 47, 15,
    47, 35, 47,
    24, 47, 24,
    36, 47, 36,
    47, 37, 47,
    38, 47, 38,
    39, 40, 39,
    47, 41, 47,
    32, 47, 32,
    26, 47, 26,
    41, 47, 41,
    47, 42, 47,
    47, 43, 47,
    47, 44, 47,
    47, 45, 47,
    46, 47, 46,
    44, 47, 44,
    43, 47, 43,
    29, 47, 29,
    47, 47, 47,
    0, 0, 0,
    0, 0, 0,
    0, 0, 0,
    0, 0, 0,
    0, 0, 0,
    0, 0, 0,
    0, 0, 0,
    0, 0, 0,
    0, 0, 0,
    0, 0, 0
]);
d_nfa = array3d(1..2, 1..57, 1..3, [
  % k = 1
    {}, {}, {},
    {}, {}, {},
    {}, {}, {},
    {}, {}, {},
    {}, {}, {},
    {}, {}, {},
    {}, {}, {},
    {}, {}, {},
    {}, {}, {},
    {}, {}, {},
    {}, {}, {},
    {}, {}, {},
    {}, {}, {},
    {}, {}, {},
    {}, {}, {},
    {}, {}, {},
    {}, {}, {},
    {}, {}, {},
    {}, {}, {},
    {}, {}, {},
    {}, {}, {},
    {}, {}, {},
    {}, {}, {},
    {}, {}, {},
    {}, {}, {},
    {}, {}, {},
    {}, {}, {},
    {}, {}, {},
    {}, {}, {},
    {}, {}, {},
    {}, {}, {},
    {}, {}, {},
    {}, {}, {},
    {}, {}, {},
    {}, {}, {},
    {}, {}, {},
    {}, {}, {},
    {}, {}, {},
    {}, {}, {},
    {}, {}, {},
    {}, {}, {},
    {}, {}, {},
    {}, {}, {},
    {}, {}, {},
    {}, {}, {},
    {}, {}, {},
    {}, {}, {},
    {}, {}, {},
    {}, {}, {},
    {}, {}, {},
    {}, {}, {},
    {}, {}, {},
    {}, {}, {},
    {}, {}, {},
    {}, {}, {},
    {}, {}, {},
    {}, {}, {},

  % k = 2
    {}, {}, {},
    {}, {}, {},
    {}, {}, {},
    {}, {}, {},
    {}, {}, {},
    {}, {}, {},
    {}, {}, {},
    {}, {}, {},
    {}, {}, {},
    {}, {}, {},
    {}, {}, {},
    {}, {}, {},
    {}, {}, {},
    {}, {}, {},
    {}, {}, {},
    {}, {}, {},
    {}, {}, {},
    {}, {}, {},
    {}, {}, {},
    {}, {}, {},
    {}, {}, {},
    {}, {}, {},
    {}, {}, {},
    {}, {}, {},
    {}, {}, {},
    {}, {}, {},
    {}, {}, {},
    {}, {}, {},
    {}, {}, {},
    {}, {}, {},
    {}, {}, {},
    {}, {}, {},
    {}, {}, {},
    {}, {}, {},
    {}, {}, {},
    {}, {}, {},
    {}, {}, {},
    {}, {}, {},
    {}, {}, {},
    {}, {}, {},
    {}, {}, {},
    {}, {}, {},
    {}, {}, {},
    {}, {}, {},
    {}, {}, {},
    {}, {}, {},
    {}, {}, {},
    {}, {}, {},
    {}, {}, {},
    {}, {}, {},
    {}, {}, {},
    {}, {}, {},
    {}, {}, {},
    {}, {}, {},
    {}, {}, {},
    {}, {}, {},
    {}, {}, {}
]);
